PARAMETER_FILE = ./image_ur.par
Reading PROBLEM_FILE: "image_ur.tsp" ... done
ASCENT_CANDIDATES = 50
BACKBONE_TRIALS = 0
BACKTRACKING = NO
# CANDIDATE_FILE =
CANDIDATE_SET_TYPE = ALPHA
# EDGE_FILE =
EXCESS = 6.05657e-05
EXTRA_CANDIDATES = 0 
EXTRA_CANDIDATE_SET_TYPE = QUADRANT
GAIN23 = YES
GAIN_CRITERION = YES
INITIAL_PERIOD = 1000
INITIAL_STEP_SIZE = 1
INITIAL_TOUR_ALGORITHM = WALK
# INITIAL_TOUR_FILE = 
INITIAL_TOUR_FRACTION = 1.000
# INPUT_TOUR_FILE = 
KICK_TYPE = 0
KICKS = 1
# MAX_BREADTH =
MAX_CANDIDATES = 0 
MAX_SWAPS = 16511
MAX_TRIALS = 1
# MERGE_TOUR_FILE =
MOVE_TYPE = 5
NONSEQUENTIAL_MOVE_TYPE = 9
# OPTIMUM =
# OUTPUT_TOUR_FILE = 
PATCHING_A = 2 
PATCHING_C = 3 
# PI_FILE = 
POPMUSIC_INITIAL_TOUR = NO
POPMUSIC_MAX_NEIGHBORS = 5
POPMUSIC_SAMPLE_SIZE = 10
POPMUSIC_SOLUTIONS = 50
POPMUSIC_TRIALS = 1
# POPULATION_SIZE = 0
PRECISION = 100
PROBLEM_FILE = image_ur.tsp
RECOMBINATION = IPT
RESTRICTED_SEARCH = YES
RUNS = 5
SEED = 1
STOP_AT_OPTIMUM = YES
SUBGRADIENT = YES
# SUBPROBLEM_SIZE =
# SUBPROBLEM_TOUR_FILE = 
SUBSEQUENT_MOVE_TYPE = 5
SUBSEQUENT_PATCHING = YES
# TIME_LIMIT =
TOUR_FILE = tour_ur
TRACE_LEVEL = 1

Lower bound = 18182756.1, Ascent time = 28.93 sec.
Cand.min = 5, Cand.avg = 13.8, Cand.max = 14
Preprocessing time = 28.95 sec.
* 1: Cost = 18188917, Time = 115.21 sec. 
Writing TOUR_FILE: "tour_ur" ... done
Run 1: Cost = 18188917, Time = 115.22 sec. 

* 1: Cost = 18189995, Time = 118.17 sec. 
Run 2: Cost = 18189995, Time = 118.18 sec. 

* 1: Cost = 18188523, Time = 180.06 sec. 
Writing TOUR_FILE: "tour_ur" ... done
Run 3: Cost = 18188522, Time = 180.07 sec. 

* 1: Cost = 18189341, Time = 349.05 sec. 
Run 4: Cost = 18189341, Time = 349.05 sec. 

* 1: Cost = 18189371, Time = 123.70 sec. 
Run 5: Cost = 18189371, Time = 123.71 sec. 

Successes/Runs = 0/5
Cost.min = 18188522, Cost.avg = 18189229.20, Cost.max = 18189995
Gap.min = 0.0000%, Gap.avg = 0.0039%, Gap.max = 0.0081%
Trials.min = 1, Trials.avg = 1.0, Trials.max = 1
Time.min = 115.22 sec., Time.avg = 177.25 sec., Time.max = 349.05 sec.
Time.total = 915.28 sec.
